NAME: IntegralityGap_HardInstane_a5_b5_c5_Generated
TYPE: TSP
COMMENT: Generated instance
DIMENSION: 18
EDGE_WEIGHT_TYPE: EXPLICIT
EDGE_WEIGHT_FORMAT: FULL_MATRIX
EDGE_WEIGHT_SECTION
0 25 50 75 100 125 50 75 100 125 150 175 50 75 100 125 150 175 
25 0 25 50 75 100 75 100 125 150 175 150 75 100 125 150 175 150 
50 25 0 25 50 75 100 125 150 175 150 125 100 125 150 175 150 125 
75 50 25 0 25 50 125 150 175 150 125 100 125 150 175 150 125 100 
100 75 50 25 0 25 150 175 150 125 100 75 150 175 150 125 100 75 
125 100 75 50 25 0 175 150 125 100 75 50 175 150 125 100 75 50 
50 75 100 125 150 175 0 25 50 75 100 125 50 75 100 125 150 175 
75 100 125 150 175 150 25 0 25 50 75 100 75 100 125 150 175 150 
100 125 150 175 150 125 50 25 0 25 50 75 100 125 150 175 150 125 
125 150 175 150 125 100 75 50 25 0 25 50 125 150 175 150 125 100 
150 175 150 125 100 75 100 75 50 25 0 25 150 175 150 125 100 75 
175 150 125 100 75 50 125 100 75 50 25 0 175 150 125 100 75 50 
50 75 100 125 150 175 50 75 100 125 150 175 0 25 50 75 100 125 
75 100 125 150 175 150 75 100 125 150 175 150 25 0 25 50 75 100 
100 125 150 175 150 125 100 125 150 175 150 125 50 25 0 25 50 75 
125 150 175 150 125 100 125 150 175 150 125 100 75 50 25 0 25 50 
150 175 150 125 100 75 150 175 150 125 100 75 100 75 50 25 0 25 
175 150 125 100 75 50 175 150 125 100 75 50 125 100 75 50 25 0 
EOF
