NAME: IntegralityGap_HardInstane_a9_b9_c9_Generated
TYPE: TSP
COMMENT: Generated instance
DIMENSION: 30
EDGE_WEIGHT_TYPE: EXPLICIT
EDGE_WEIGHT_FORMAT: FULL_MATRIX
EDGE_WEIGHT_SECTION
0 81 162 243 324 405 486 567 648 729 162 243 324 405 486 567 648 729 810 891 162 243 324 405 486 567 648 729 810 891 
81 0 81 162 243 324 405 486 567 648 243 324 405 486 567 648 729 810 891 810 243 324 405 486 567 648 729 810 891 810 
162 81 0 81 162 243 324 405 486 567 324 405 486 567 648 729 810 891 810 729 324 405 486 567 648 729 810 891 810 729 
243 162 81 0 81 162 243 324 405 486 405 486 567 648 729 810 891 810 729 648 405 486 567 648 729 810 891 810 729 648 
324 243 162 81 0 81 162 243 324 405 486 567 648 729 810 891 810 729 648 567 486 567 648 729 810 891 810 729 648 567 
405 324 243 162 81 0 81 162 243 324 567 648 729 810 891 810 729 648 567 486 567 648 729 810 891 810 729 648 567 486 
486 405 324 243 162 81 0 81 162 243 648 729 810 891 810 729 648 567 486 405 648 729 810 891 810 729 648 567 486 405 
567 486 405 324 243 162 81 0 81 162 729 810 891 810 729 648 567 486 405 324 729 810 891 810 729 648 567 486 405 324 
648 567 486 405 324 243 162 81 0 81 810 891 810 729 648 567 486 405 324 243 810 891 810 729 648 567 486 405 324 243 
729 648 567 486 405 324 243 162 81 0 891 810 729 648 567 486 405 324 243 162 891 810 729 648 567 486 405 324 243 162 
162 243 324 405 486 567 648 729 810 891 0 81 162 243 324 405 486 567 648 729 162 243 324 405 486 567 648 729 810 891 
243 324 405 486 567 648 729 810 891 810 81 0 81 162 243 324 405 486 567 648 243 324 405 486 567 648 729 810 891 810 
324 405 486 567 648 729 810 891 810 729 162 81 0 81 162 243 324 405 486 567 324 405 486 567 648 729 810 891 810 729 
405 486 567 648 729 810 891 810 729 648 243 162 81 0 81 162 243 324 405 486 405 486 567 648 729 810 891 810 729 648 
486 567 648 729 810 891 810 729 648 567 324 243 162 81 0 81 162 243 324 405 486 567 648 729 810 891 810 729 648 567 
567 648 729 810 891 810 729 648 567 486 405 324 243 162 81 0 81 162 243 324 567 648 729 810 891 810 729 648 567 486 
648 729 810 891 810 729 648 567 486 405 486 405 324 243 162 81 0 81 162 243 648 729 810 891 810 729 648 567 486 405 
729 810 891 810 729 648 567 486 405 324 567 486 405 324 243 162 81 0 81 162 729 810 891 810 729 648 567 486 405 324 
810 891 810 729 648 567 486 405 324 243 648 567 486 405 324 243 162 81 0 81 810 891 810 729 648 567 486 405 324 243 
891 810 729 648 567 486 405 324 243 162 729 648 567 486 405 324 243 162 81 0 891 810 729 648 567 486 405 324 243 162 
162 243 324 405 486 567 648 729 810 891 162 243 324 405 486 567 648 729 810 891 0 81 162 243 324 405 486 567 648 729 
243 324 405 486 567 648 729 810 891 810 243 324 405 486 567 648 729 810 891 810 81 0 81 162 243 324 405 486 567 648 
324 405 486 567 648 729 810 891 810 729 324 405 486 567 648 729 810 891 810 729 162 81 0 81 162 243 324 405 486 567 
405 486 567 648 729 810 891 810 729 648 405 486 567 648 729 810 891 810 729 648 243 162 81 0 81 162 243 324 405 486 
486 567 648 729 810 891 810 729 648 567 486 567 648 729 810 891 810 729 648 567 324 243 162 81 0 81 162 243 324 405 
567 648 729 810 891 810 729 648 567 486 567 648 729 810 891 810 729 648 567 486 405 324 243 162 81 0 81 162 243 324 
648 729 810 891 810 729 648 567 486 405 648 729 810 891 810 729 648 567 486 405 486 405 324 243 162 81 0 81 162 243 
729 810 891 810 729 648 567 486 405 324 729 810 891 810 729 648 567 486 405 324 567 486 405 324 243 162 81 0 81 162 
810 891 810 729 648 567 486 405 324 243 810 891 810 729 648 567 486 405 324 243 648 567 486 405 324 243 162 81 0 81 
891 810 729 648 567 486 405 324 243 162 891 810 729 648 567 486 405 324 243 162 729 648 567 486 405 324 243 162 81 0 
EOF
