NAME: IntegralityGap_HardInstane_a6_b6_c6_Generated
TYPE: TSP
COMMENT: Generated instance
DIMENSION: 21
EDGE_WEIGHT_TYPE: EXPLICIT
EDGE_WEIGHT_FORMAT: FULL_MATRIX
EDGE_WEIGHT_SECTION
0 36 72 108 144 180 216 72 108 144 180 216 252 288 72 108 144 180 216 252 288 
36 0 36 72 108 144 180 108 144 180 216 252 288 252 108 144 180 216 252 288 252 
72 36 0 36 72 108 144 144 180 216 252 288 252 216 144 180 216 252 288 252 216 
108 72 36 0 36 72 108 180 216 252 288 252 216 180 180 216 252 288 252 216 180 
144 108 72 36 0 36 72 216 252 288 252 216 180 144 216 252 288 252 216 180 144 
180 144 108 72 36 0 36 252 288 252 216 180 144 108 252 288 252 216 180 144 108 
216 180 144 108 72 36 0 288 252 216 180 144 108 72 288 252 216 180 144 108 72 
72 108 144 180 216 252 288 0 36 72 108 144 180 216 72 108 144 180 216 252 288 
108 144 180 216 252 288 252 36 0 36 72 108 144 180 108 144 180 216 252 288 252 
144 180 216 252 288 252 216 72 36 0 36 72 108 144 144 180 216 252 288 252 216 
180 216 252 288 252 216 180 108 72 36 0 36 72 108 180 216 252 288 252 216 180 
216 252 288 252 216 180 144 144 108 72 36 0 36 72 216 252 288 252 216 180 144 
252 288 252 216 180 144 108 180 144 108 72 36 0 36 252 288 252 216 180 144 108 
288 252 216 180 144 108 72 216 180 144 108 72 36 0 288 252 216 180 144 108 72 
72 108 144 180 216 252 288 72 108 144 180 216 252 288 0 36 72 108 144 180 216 
108 144 180 216 252 288 252 108 144 180 216 252 288 252 36 0 36 72 108 144 180 
144 180 216 252 288 252 216 144 180 216 252 288 252 216 72 36 0 36 72 108 144 
180 216 252 288 252 216 180 180 216 252 288 252 216 180 108 72 36 0 36 72 108 
216 252 288 252 216 180 144 216 252 288 252 216 180 144 144 108 72 36 0 36 72 
252 288 252 216 180 144 108 252 288 252 216 180 144 108 180 144 108 72 36 0 36 
288 252 216 180 144 108 72 288 252 216 180 144 108 72 216 180 144 108 72 36 0 
EOF
