NAME: IntegralityGap_HardInstane_a8_b8_c8_Generated
TYPE: TSP
COMMENT: Generated instance
DIMENSION: 27
EDGE_WEIGHT_TYPE: EXPLICIT
EDGE_WEIGHT_FORMAT: FULL_MATRIX
EDGE_WEIGHT_SECTION
0 64 128 192 256 320 384 448 512 128 192 256 320 384 448 512 576 640 128 192 256 320 384 448 512 576 640 
64 0 64 128 192 256 320 384 448 192 256 320 384 448 512 576 640 576 192 256 320 384 448 512 576 640 576 
128 64 0 64 128 192 256 320 384 256 320 384 448 512 576 640 576 512 256 320 384 448 512 576 640 576 512 
192 128 64 0 64 128 192 256 320 320 384 448 512 576 640 576 512 448 320 384 448 512 576 640 576 512 448 
256 192 128 64 0 64 128 192 256 384 448 512 576 640 576 512 448 384 384 448 512 576 640 576 512 448 384 
320 256 192 128 64 0 64 128 192 448 512 576 640 576 512 448 384 320 448 512 576 640 576 512 448 384 320 
384 320 256 192 128 64 0 64 128 512 576 640 576 512 448 384 320 256 512 576 640 576 512 448 384 320 256 
448 384 320 256 192 128 64 0 64 576 640 576 512 448 384 320 256 192 576 640 576 512 448 384 320 256 192 
512 448 384 320 256 192 128 64 0 640 576 512 448 384 320 256 192 128 640 576 512 448 384 320 256 192 128 
128 192 256 320 384 448 512 576 640 0 64 128 192 256 320 384 448 512 128 192 256 320 384 448 512 576 640 
192 256 320 384 448 512 576 640 576 64 0 64 128 192 256 320 384 448 192 256 320 384 448 512 576 640 576 
256 320 384 448 512 576 640 576 512 128 64 0 64 128 192 256 320 384 256 320 384 448 512 576 640 576 512 
320 384 448 512 576 640 576 512 448 192 128 64 0 64 128 192 256 320 320 384 448 512 576 640 576 512 448 
384 448 512 576 640 576 512 448 384 256 192 128 64 0 64 128 192 256 384 448 512 576 640 576 512 448 384 
448 512 576 640 576 512 448 384 320 320 256 192 128 64 0 64 128 192 448 512 576 640 576 512 448 384 320 
512 576 640 576 512 448 384 320 256 384 320 256 192 128 64 0 64 128 512 576 640 576 512 448 384 320 256 
576 640 576 512 448 384 320 256 192 448 384 320 256 192 128 64 0 64 576 640 576 512 448 384 320 256 192 
640 576 512 448 384 320 256 192 128 512 448 384 320 256 192 128 64 0 640 576 512 448 384 320 256 192 128 
128 192 256 320 384 448 512 576 640 128 192 256 320 384 448 512 576 640 0 64 128 192 256 320 384 448 512 
192 256 320 384 448 512 576 640 576 192 256 320 384 448 512 576 640 576 64 0 64 128 192 256 320 384 448 
256 320 384 448 512 576 640 576 512 256 320 384 448 512 576 640 576 512 128 64 0 64 128 192 256 320 384 
320 384 448 512 576 640 576 512 448 320 384 448 512 576 640 576 512 448 192 128 64 0 64 128 192 256 320 
384 448 512 576 640 576 512 448 384 384 448 512 576 640 576 512 448 384 256 192 128 64 0 64 128 192 256 
448 512 576 640 576 512 448 384 320 448 512 576 640 576 512 448 384 320 320 256 192 128 64 0 64 128 192 
512 576 640 576 512 448 384 320 256 512 576 640 576 512 448 384 320 256 384 320 256 192 128 64 0 64 128 
576 640 576 512 448 384 320 256 192 576 640 576 512 448 384 320 256 192 448 384 320 256 192 128 64 0 64 
640 576 512 448 384 320 256 192 128 640 576 512 448 384 320 256 192 128 512 448 384 320 256 192 128 64 0 
EOF
