NAME: IntegralityGap_HardInstane_a7_b7_c7_Generated
TYPE: TSP
COMMENT: Generated instance
DIMENSION: 24
EDGE_WEIGHT_TYPE: EXPLICIT
EDGE_WEIGHT_FORMAT: FULL_MATRIX
EDGE_WEIGHT_SECTION
0 49 98 147 196 245 294 343 98 147 196 245 294 343 392 441 98 147 196 245 294 343 392 441 
49 0 49 98 147 196 245 294 147 196 245 294 343 392 441 392 147 196 245 294 343 392 441 392 
98 49 0 49 98 147 196 245 196 245 294 343 392 441 392 343 196 245 294 343 392 441 392 343 
147 98 49 0 49 98 147 196 245 294 343 392 441 392 343 294 245 294 343 392 441 392 343 294 
196 147 98 49 0 49 98 147 294 343 392 441 392 343 294 245 294 343 392 441 392 343 294 245 
245 196 147 98 49 0 49 98 343 392 441 392 343 294 245 196 343 392 441 392 343 294 245 196 
294 245 196 147 98 49 0 49 392 441 392 343 294 245 196 147 392 441 392 343 294 245 196 147 
343 294 245 196 147 98 49 0 441 392 343 294 245 196 147 98 441 392 343 294 245 196 147 98 
98 147 196 245 294 343 392 441 0 49 98 147 196 245 294 343 98 147 196 245 294 343 392 441 
147 196 245 294 343 392 441 392 49 0 49 98 147 196 245 294 147 196 245 294 343 392 441 392 
196 245 294 343 392 441 392 343 98 49 0 49 98 147 196 245 196 245 294 343 392 441 392 343 
245 294 343 392 441 392 343 294 147 98 49 0 49 98 147 196 245 294 343 392 441 392 343 294 
294 343 392 441 392 343 294 245 196 147 98 49 0 49 98 147 294 343 392 441 392 343 294 245 
343 392 441 392 343 294 245 196 245 196 147 98 49 0 49 98 343 392 441 392 343 294 245 196 
392 441 392 343 294 245 196 147 294 245 196 147 98 49 0 49 392 441 392 343 294 245 196 147 
441 392 343 294 245 196 147 98 343 294 245 196 147 98 49 0 441 392 343 294 245 196 147 98 
98 147 196 245 294 343 392 441 98 147 196 245 294 343 392 441 0 49 98 147 196 245 294 343 
147 196 245 294 343 392 441 392 147 196 245 294 343 392 441 392 49 0 49 98 147 196 245 294 
196 245 294 343 392 441 392 343 196 245 294 343 392 441 392 343 98 49 0 49 98 147 196 245 
245 294 343 392 441 392 343 294 245 294 343 392 441 392 343 294 147 98 49 0 49 98 147 196 
294 343 392 441 392 343 294 245 294 343 392 441 392 343 294 245 196 147 98 49 0 49 98 147 
343 392 441 392 343 294 245 196 343 392 441 392 343 294 245 196 245 196 147 98 49 0 49 98 
392 441 392 343 294 245 196 147 392 441 392 343 294 245 196 147 294 245 196 147 98 49 0 49 
441 392 343 294 245 196 147 98 441 392 343 294 245 196 147 98 343 294 245 196 147 98 49 0 
EOF
