NAME: IntegralityGap_HardInstane_a10_b10_c10_Generated
TYPE: TSP
COMMENT: Generated instance
DIMENSION: 33
EDGE_WEIGHT_TYPE: EXPLICIT
EDGE_WEIGHT_FORMAT: FULL_MATRIX
EDGE_WEIGHT_SECTION
0 100 200 300 400 500 600 700 800 900 1000 200 300 400 500 600 700 800 900 1000 1100 1200 200 300 400 500 600 700 800 900 1000 1100 1200 
100 0 100 200 300 400 500 600 700 800 900 300 400 500 600 700 800 900 1000 1100 1200 1100 300 400 500 600 700 800 900 1000 1100 1200 1100 
200 100 0 100 200 300 400 500 600 700 800 400 500 600 700 800 900 1000 1100 1200 1100 1000 400 500 600 700 800 900 1000 1100 1200 1100 1000 
300 200 100 0 100 200 300 400 500 600 700 500 600 700 800 900 1000 1100 1200 1100 1000 900 500 600 700 800 900 1000 1100 1200 1100 1000 900 
400 300 200 100 0 100 200 300 400 500 600 600 700 800 900 1000 1100 1200 1100 1000 900 800 600 700 800 900 1000 1100 1200 1100 1000 900 800 
500 400 300 200 100 0 100 200 300 400 500 700 800 900 1000 1100 1200 1100 1000 900 800 700 700 800 900 1000 1100 1200 1100 1000 900 800 700 
600 500 400 300 200 100 0 100 200 300 400 800 900 1000 1100 1200 1100 1000 900 800 700 600 800 900 1000 1100 1200 1100 1000 900 800 700 600 
700 600 500 400 300 200 100 0 100 200 300 900 1000 1100 1200 1100 1000 900 800 700 600 500 900 1000 1100 1200 1100 1000 900 800 700 600 500 
800 700 600 500 400 300 200 100 0 100 200 1000 1100 1200 1100 1000 900 800 700 600 500 400 1000 1100 1200 1100 1000 900 800 700 600 500 400 
900 800 700 600 500 400 300 200 100 0 100 1100 1200 1100 1000 900 800 700 600 500 400 300 1100 1200 1100 1000 900 800 700 600 500 400 300 
1000 900 800 700 600 500 400 300 200 100 0 1200 1100 1000 900 800 700 600 500 400 300 200 1200 1100 1000 900 800 700 600 500 400 300 200 
200 300 400 500 600 700 800 900 1000 1100 1200 0 100 200 300 400 500 600 700 800 900 1000 200 300 400 500 600 700 800 900 1000 1100 1200 
300 400 500 600 700 800 900 1000 1100 1200 1100 100 0 100 200 300 400 500 600 700 800 900 300 400 500 600 700 800 900 1000 1100 1200 1100 
400 500 600 700 800 900 1000 1100 1200 1100 1000 200 100 0 100 200 300 400 500 600 700 800 400 500 600 700 800 900 1000 1100 1200 1100 1000 
500 600 700 800 900 1000 1100 1200 1100 1000 900 300 200 100 0 100 200 300 400 500 600 700 500 600 700 800 900 1000 1100 1200 1100 1000 900 
600 700 800 900 1000 1100 1200 1100 1000 900 800 400 300 200 100 0 100 200 300 400 500 600 600 700 800 900 1000 1100 1200 1100 1000 900 800 
700 800 900 1000 1100 1200 1100 1000 900 800 700 500 400 300 200 100 0 100 200 300 400 500 700 800 900 1000 1100 1200 1100 1000 900 800 700 
800 900 1000 1100 1200 1100 1000 900 800 700 600 600 500 400 300 200 100 0 100 200 300 400 800 900 1000 1100 1200 1100 1000 900 800 700 600 
900 1000 1100 1200 1100 1000 900 800 700 600 500 700 600 500 400 300 200 100 0 100 200 300 900 1000 1100 1200 1100 1000 900 800 700 600 500 
1000 1100 1200 1100 1000 900 800 700 600 500 400 800 700 600 500 400 300 200 100 0 100 200 1000 1100 1200 1100 1000 900 800 700 600 500 400 
1100 1200 1100 1000 900 800 700 600 500 400 300 900 800 700 600 500 400 300 200 100 0 100 1100 1200 1100 1000 900 800 700 600 500 400 300 
1200 1100 1000 900 800 700 600 500 400 300 200 1000 900 800 700 600 500 400 300 200 100 0 1200 1100 1000 900 800 700 600 500 400 300 200 
200 300 400 500 600 700 800 900 1000 1100 1200 200 300 400 500 600 700 800 900 1000 1100 1200 0 100 200 300 400 500 600 700 800 900 1000 
300 400 500 600 700 800 900 1000 1100 1200 1100 300 400 500 600 700 800 900 1000 1100 1200 1100 100 0 100 200 300 400 500 600 700 800 900 
400 500 600 700 800 900 1000 1100 1200 1100 1000 400 500 600 700 800 900 1000 1100 1200 1100 1000 200 100 0 100 200 300 400 500 600 700 800 
500 600 700 800 900 1000 1100 1200 1100 1000 900 500 600 700 800 900 1000 1100 1200 1100 1000 900 300 200 100 0 100 200 300 400 500 600 700 
600 700 800 900 1000 1100 1200 1100 1000 900 800 600 700 800 900 1000 1100 1200 1100 1000 900 800 400 300 200 100 0 100 200 300 400 500 600 
700 800 900 1000 1100 1200 1100 1000 900 800 700 700 800 900 1000 1100 1200 1100 1000 900 800 700 500 400 300 200 100 0 100 200 300 400 500 
800 900 1000 1100 1200 1100 1000 900 800 700 600 800 900 1000 1100 1200 1100 1000 900 800 700 600 600 500 400 300 200 100 0 100 200 300 400 
900 1000 1100 1200 1100 1000 900 800 700 600 500 900 1000 1100 1200 1100 1000 900 800 700 600 500 700 600 500 400 300 200 100 0 100 200 300 
1000 1100 1200 1100 1000 900 800 700 600 500 400 1000 1100 1200 1100 1000 900 800 700 600 500 400 800 700 600 500 400 300 200 100 0 100 200 
1100 1200 1100 1000 900 800 700 600 500 400 300 1100 1200 1100 1000 900 800 700 600 500 400 300 900 800 700 600 500 400 300 200 100 0 100 
1200 1100 1000 900 800 700 600 500 400 300 200 1200 1100 1000 900 800 700 600 500 400 300 200 1000 900 800 700 600 500 400 300 200 100 0 
EOF
